
Gurobi 11.0.3 (linux64) logging started Sun Nov 24 14:59:23 2024

Set parameter LogFile to value "/home/yihong/Coding/OR_SUC/SUC_results_bigM100000_thread4/case24_ieee_rts_theta0.1_epsilon0.025_gurobi_seed1450000_num_gen100_N_WDR150_load_scaling_factor1_proposed_T24quadra_cost.txt"
Set parameter TimeLimit to value 3600
Gurobi Optimizer version 11.0.3 build v11.0.3rc0 (linux64 - "Ubuntu 20.04.6 LTS")

CPU model: AMD EPYC 7532 32-Core Processor, instruction set [SSE2|AVX|AVX2]
Thread count: 64 physical cores, 128 logical processors, using up to 4 threads

Optimize a model with 53864 rows, 29911 columns and 911262 nonzeros
Model fingerprint: 0x3c435a50
Model has 2400 quadratic constraints
Variable types: 27511 continuous, 2400 integer (2400 binary)
Coefficient statistics:
  Matrix range     [3e-04, 2e+03]
  QMatrix range    [2e-03, 8e-03]
  QLMatrix range   [1e-02, 6e+01]
  Objective range  [1e+00, 1e+00]
  Bounds range     [1e+00, 1e+00]
  RHS range        [1e+00, 9e+03]
Presolve removed 43776 rows and 12813 columns
Presolve time: 0.31s
Presolved: 10088 rows, 17098 columns, 54311 nonzeros
Presolved model has 2400 quadratic constraint(s)
Variable types: 14698 continuous, 2400 integer (2400 binary)

Root relaxation: objective 3.949259e+04, 7986 iterations, 0.22 seconds (0.30 work units)

    Nodes    |    Current Node    |     Objective Bounds      |     Work
 Expl Unexpl |  Obj  Depth IntInf | Incumbent    BestBd   Gap | It/Node Time

     0     0 39492.5904    0   24          - 39492.5904      -     -    0s
     0     0 314724.116    0  776          - 314724.116      -     -    1s
     0     0 342681.315    0  772          - 342681.315      -     -    1s
     0     0 616097.151    0  733          - 616097.151      -     -    1s
     0     0 616450.582    0  455          - 616450.582      -     -    1s
     0     0 616713.353    0  356          - 616713.353      -     -    1s
     0     0 616713.738    0  356          - 616713.738      -     -    1s
     0     0 616715.644    0  348          - 616715.644      -     -    1s
     0     0 616716.915    0  348          - 616716.915      -     -    1s
     0     2 616716.915    0  348          - 616716.915      -     -    3s
H  429   326                    617170.74508 616748.640  0.07%  34.3    5s
*  429   326             152    617170.74508 616748.640  0.07%  34.3    5s

Cutting planes:
  Gomory: 6
  Implied bound: 367
  MIR: 115
  Flow cover: 249

Explored 473 nodes (40085 simplex iterations) in 5.58 seconds (6.88 work units)
Thread count was 4 (of 128 available processors)

Solution count 2: 617171 617171 

Optimal solution found (tolerance 1.00e-03)
Warning: max constraint violation (2.3294e-07) exceeds tolerance
Best objective 6.171707450860e+05, best bound 6.167486398364e+05, gap 0.0684%
